Optimal - objective value 24.50000000
      0 Cmax                 24.5                       0
      1 C_0                  24.5                       0
      2 C_1                    24                       0
      3 C_2                  13.5                       0
      4 C_3       5.49999999999999                       0
      5 C_4                    13                       0
      6 C_5       4.49999999999999                       0
      7 C_6                     5                       0
      8 C_7                  24.5                       0
     10 x_0_1                   1                     208
     14 x_1_2                   1                       0
     16 x_2_1                   1                     416
     18 x_3_0                   1                       0
     23 x_4_2                   1                       0
     26 x_5_2                   1                       0
     28 x_6_1                   1                     416
     30 x_7_0                   1                       0
     34 d_0_1_1                 1                       0
     35 d_0_1_2                 1                       0
     39 d_0_3_0                 1                       0
     44 d_0_4_2                 1                       0
     47 d_0_5_2                 1                       0
     50 d_0_6_2                 1                       0
     57 d_1_3_0                 1                       0
     64 d_1_5_1                 1                       0
     70 d_1_7_1                 1                       0
     85 d_2_7_1                 1                       0
     89 d_3_4_2                 1                       0
     90 d_3_5_0                 1                       0
     93 d_3_6_0                 1                       0
     96 d_3_7_0                 1                       0
    102 d_4_6_0                 1                       0
    103 d_4_6_1                 1                       0
    109 d_5_6_1                 1                       0
    111 d_5_7_0                 1                       0
    112 d_5_7_1                 1                       0
    114 d_6_7_0                 1                       0
    115 d_6_7_1                 1                       0
